NAME          stein15inf
ROWS
 N  OBJ     
 G  A1      
 G  A2      
 G  A3      
 G  A4      
 G  A5      
 G  A6      
 G  A7      
 G  A8      
 G  A9      
 G  A10     
 G  A11     
 G  A12     
 G  A13     
 G  A14     
 G  A15     
 G  A16     
 G  A17     
 G  A18     
 G  A19     
 G  A20     
 G  A21     
 G  A22     
 G  A23     
 G  A24     
 G  A25     
 G  A26     
 G  A27     
 G  A28     
 G  A29     
 G  A30     
 G  A31     
 G  A32     
 G  A33     
 G  A34     
 G  A35     
 G  OB2     
 L  c37     
COLUMNS
    MARK0000  'MARKER'                 'INTORG'
    ZZ01      OBJ                  1   A3                   1
    ZZ01      A4                   1   A7                   1
    ZZ01      A10                  1   A21                  1
    ZZ01      A26                  1   A31                  1
    ZZ01      OB2                  1   c37                  1
    ZZ02      OBJ                  1   A4                   1
    ZZ02      A5                   1   A6                   1
    ZZ02      A8                   1   A22                  1
    ZZ02      A27                  1   A32                  1
    ZZ02      OB2                  1   c37                  1
    ZZ03      OBJ                  1   A1                   1
    ZZ03      A5                   1   A7                   1
    ZZ03      A9                   1   A23                  1
    ZZ03      A28                  1   A33                  1
    ZZ03      OB2                  1   c37                  1
    ZZ04      OBJ                  1   A1                   1
    ZZ04      A2                   1   A8                   1
    ZZ04      A10                  1   A24                  1
    ZZ04      A29                  1   A34                  1
    ZZ04      OB2                  1   c37                  1
    ZZ05      OBJ                  1   A2                   1
    ZZ05      A3                   1   A6                   1
    ZZ05      A9                   1   A25                  1
    ZZ05      A30                  1   A35                  1
    ZZ05      OB2                  1   c37                  1
    ZZ06      OBJ                  1   A1                   1
    ZZ06      A6                   1   A13                  1
    ZZ06      A14                  1   A17                  1
    ZZ06      A20                  1   A31                  1
    ZZ06      OB2                  1   c37                  1
    ZZ07      OBJ                  1   A2                   1
    ZZ07      A7                   1   A14                  1
    ZZ07      A15                  1   A16                  1
    ZZ07      A18                  1   A32                  1
    ZZ07      OB2                  1   c37                  1
    ZZ08      OBJ                  1   A3                   1
    ZZ08      A8                   1   A11                  1
    ZZ08      A15                  1   A17                  1
    ZZ08      A19                  1   A33                  1
    ZZ08      OB2                  1   c37                  1
    ZZ09      OBJ                  1   A4                   1
    ZZ09      A9                   1   A11                  1
    ZZ09      A12                  1   A18                  1
    ZZ09      A20                  1   A34                  1
    ZZ09      OB2                  1   c37                  1
    ZZ10      OBJ                  1   A5                   1
    ZZ10      A10                  1   A12                  1
    ZZ10      A13                  1   A16                  1
    ZZ10      A19                  1   A35                  1
    ZZ10      OB2                  1   c37                  1
    ZZ11      OBJ                  1   A11                  1
    ZZ11      A16                  1   A23                  1
    ZZ11      A24                  1   A27                  1
    ZZ11      A30                  1   A31                  1
    ZZ11      OB2                  1   c37                  1
    ZZ12      OBJ                  1   A12                  1
    ZZ12      A17                  1   A24                  1
    ZZ12      A25                  1   A26                  1
    ZZ12      A28                  1   A32                  1
    ZZ12      OB2                  1   c37                  1
    ZZ13      OBJ                  1   A13                  1
    ZZ13      A18                  1   A21                  1
    ZZ13      A25                  1   A27                  1
    ZZ13      A29                  1   A33                  1
    ZZ13      OB2                  1   c37                  1
    ZZ14      OBJ                  1   A14                  1
    ZZ14      A19                  1   A21                  1
    ZZ14      A22                  1   A28                  1
    ZZ14      A30                  1   A34                  1
    ZZ14      OB2                  1   c37                  1
    ZZ15      OBJ                  1   A15                  1
    ZZ15      A20                  1   A22                  1
    ZZ15      A23                  1   A26                  1
    ZZ15      A29                  1   A35                  1
    ZZ15      OB2                  1   c37                  1
    MARK0001  'MARKER'                 'INTEND'
RHS
    RHS       A1                   1   A2                   1
    RHS       A3                   1   A4                   1
    RHS       A5                   1   A6                   1
    RHS       A7                   1   A8                   1
    RHS       A9                   1   A10                  1
    RHS       A11                  1   A12                  1
    RHS       A13                  1   A14                  1
    RHS       A15                  1   A16                  1
    RHS       A17                  1   A18                  1
    RHS       A19                  1   A20                  1
    RHS       A21                  1   A22                  1
    RHS       A23                  1   A24                  1
    RHS       A25                  1   A26                  1
    RHS       A27                  1   A28                  1
    RHS       A29                  1   A30                  1
    RHS       A31                  1   A32                  1
    RHS       A33                  1   A34                  1
    RHS       A35                  1   OB2                  7
    RHS       c37                  8
BOUNDS
 UP bnd       ZZ01                 1
 UP bnd       ZZ02                 1
 UP bnd       ZZ03                 1
 UP bnd       ZZ04                 1
 UP bnd       ZZ05                 1
 UP bnd       ZZ06                 1
 UP bnd       ZZ07                 1
 UP bnd       ZZ08                 1
 UP bnd       ZZ09                 1
 UP bnd       ZZ10                 1
 UP bnd       ZZ11                 1
 UP bnd       ZZ12                 1
 UP bnd       ZZ13                 1
 UP bnd       ZZ14                 1
 UP bnd       ZZ15                 1
ENDATA
